
Gurobi 9.5.1 (mac64[x86]) logging started Thu Jun  9 19:30:58 2022

Set parameter LogFile to value "/Users/keyvanmajd/Documents/GitHub/NNRepLayer_v2/demos/walking_example/dynamic_constraint/repair_net/logs/opt_log_6_9_2022_19_29_32.log"
Gurobi Optimizer version 9.5.1 build v9.5.1rc2 (mac64[x86])
Thread count: 4 physical cores, 8 logical processors, using up to 8 threads
Optimize a model with 37077 rows, 22792 columns and 105173 nonzeros
Model fingerprint: 0x20911c72
Model has 136 quadratic objective terms
Variable types: 9832 continuous, 12960 integer (12960 binary)
Coefficient statistics:
  Matrix range     [7e-04, 5e+01]
  Objective range  [2e-02, 3e+00]
  QObjective range [1e-01, 2e+00]
  Bounds range     [1e-01, 5e+01]
  RHS range        [2e-04, 5e+01]
Presolve removed 30087 rows and 16570 columns
Presolve time: 0.33s
Presolved: 6990 rows, 6222 columns, 33244 nonzeros
Presolved model has 136 quadratic objective terms
Variable types: 4467 continuous, 1755 integer (1755 binary)
Root relaxation presolve removed 1755 rows and 1755 columns
Root relaxation presolved: 5235 rows, 4467 columns, 29734 nonzeros
Root relaxation presolved model has 136 quadratic objective terms

Extra simplex iterations after uncrush: 71

Root relaxation: objective 2.249186e+01, 16949 iterations, 1.05 seconds (1.20 work units)

    Nodes    |    Current Node    |     Objective Bounds      |     Work
 Expl Unexpl |  Obj  Depth IntInf | Incumbent    BestBd   Gap | It/Node Time

     0     0   22.49186    0  888          -   22.49186      -     -    1s
     0     0   23.57467    0  979          -   23.57467      -     -    6s
     0     0   23.60028    0  928          -   23.60028      -     -    7s
     0     0   23.60120    0  930          -   23.60120      -     -    7s
     0     0   23.60121    0  934          -   23.60121      -     -    7s
     0     0   24.27039    0 1001          -   24.27039      -     -   10s
     0     0   24.46778    0  978          -   24.46778      -     -   14s
     0     0   24.48074    0  952          -   24.48074      -     -   14s
     0     0   24.48598    0  955          -   24.48598      -     -   14s
     0     0   24.48708    0  958          -   24.48708      -     -   14s
     0     0   24.48716    0  957          -   24.48716      -     -   14s
     0     0   24.85899    0 1040          -   24.85899      -     -   20s
     0     0   25.01186    0 1029          -   25.01186      -     -   23s
     0     0   25.01186    0 1045          -   25.01186      -     -   25s
     0     0   25.01186    0 1047          -   25.01186      -     -   25s
     0     0   25.01186    0 1042          -   25.01186      -     -   26s
H    0     0                      33.0303383   25.19591  23.7%     -   31s
H    0     0                      33.0303381   25.19591  23.7%     -   31s
     0     0   25.19591    0 1042   33.03034   25.19591  23.7%     -   31s
H    0     0                      33.0299964   25.19591  23.7%     -   31s
     0     0   25.28176    0 1052   33.03000   25.28176  23.5%     -   36s
     0     0   25.42914    0 1067   33.03000   25.42914  23.0%     -   38s
     0     0   25.42914    0 1082   33.03000   25.42914  23.0%     -   39s
     0     0   25.42914    0 1061   33.03000   25.42914  23.0%     -   40s
     0     0   25.42914    0 1066   33.03000   25.42914  23.0%     -   40s
H    0     0                      33.0242502   25.52314  22.7%     -   47s
     0     0   25.52314    0 1049   33.02425   25.52314  22.7%     -   47s
     0     0   25.70078    0 1051   33.02425   25.70078  22.2%     -   53s
     0     0   25.70078    0 1084   33.02425   25.70078  22.2%     -   57s
     0     0   25.70078    0 1084   33.02425   25.70078  22.2%     -   58s
     0     0   25.70078    0 1081   33.02425   25.70078  22.2%     -   59s
     0     0   25.70078    0 1085   33.02425   25.70078  22.2%     -   60s
     0     0   26.56466    0 1088   33.02425   26.56466  19.6%     -  123s
     0     0   26.64126    0 1082   33.02425   26.64126  19.3%     -  128s
     0     0   26.72090    0 1087   33.02425   26.72090  19.1%     -  133s
     0     0   26.72090    0 1103   33.02425   26.72090  19.1%     -  135s
     0     0   26.72090    0 1106   33.02425   26.72090  19.1%     -  136s
     0     0   26.72090    0 1112   33.02425   26.72090  19.1%     -  136s
     0     0   26.88252    0 1071   33.02425   26.88252  18.6%     -  155s
     0     0   26.96657    0 1077   33.02425   26.96657  18.3%     -  159s
     0     0   26.99970    0 1101   33.02425   26.99970  18.2%     -  163s
     0     0   26.99970    0 1103   33.02425   26.99970  18.2%     -  164s
     0     0   26.99970    0 1111   33.02425   26.99970  18.2%     -  165s
     0     0   26.99970    0 1103   33.02425   26.99970  18.2%     -  165s
     0     0   27.05657    0 1084   33.02425   27.05657  18.1%     -  171s
     0     0   27.09115    0 1097   33.02425   27.09115  18.0%     -  176s
     0     0   27.17103    0 1103   33.02425   27.17103  17.7%     -  178s
     0     0   27.17103    0 1109   33.02425   27.17103  17.7%     -  179s
     0     0   27.17103    0 1078   33.02425   27.17103  17.7%     -  186s
     0     0   27.20700    0 1094   33.02425   27.20700  17.6%     -  190s
     0     0   27.23859    0 1089   33.02425   27.23859  17.5%     -  192s
     0     0   27.23859    0 1098   33.02425   27.23859  17.5%     -  193s
     0     0   27.23859    0 1097   33.02425   27.23859  17.5%     -  193s
     0     0   27.27210    0 1104   33.02425   27.27210  17.4%     -  201s
     0     0   27.27210    0 1104   33.02425   27.27210  17.4%     -  206s
     0     0   27.35174    0 1104   33.02425   27.35174  17.2%     -  208s
     0     0   27.35174    0 1112   33.02425   27.35174  17.2%     -  210s
     0     0   27.42508    0 1108   33.02425   27.42508  17.0%     -  220s
     0     0   27.46357    0 1112   33.02425   27.46357  16.8%     -  224s
     0     0   27.49209    0 1113   33.02425   27.49209  16.8%     -  229s
     0     0   27.50278    0 1128   33.02425   27.50278  16.7%     -  231s
     0     0   27.50574    0 1144   33.02425   27.50574  16.7%     -  233s
     0     0   27.57114    0 1097   33.02425   27.57114  16.5%     -  239s
     0     0   27.59912    0 1109   33.02425   27.59912  16.4%     -  243s
     0     0   27.60485    0 1108   33.02425   27.60485  16.4%     -  245s
     0     0   27.60745    0 1120   33.02425   27.60745  16.4%     -  246s
     0     0   27.68578    0 1097   33.02425   27.68578  16.2%     -  255s
     0     0   27.71258    0 1114   33.02425   27.71258  16.1%     -  261s
     0     0   27.72154    0 1117   33.02425   27.72154  16.1%     -  264s
     0     0   27.72455    0 1125   33.02425   27.72455  16.0%     -  265s
     0     0   27.77225    0 1109   33.02425   27.77225  15.9%     -  272s
H    0     0                      33.0242501   27.77225  15.9%     -  272s
     0     0   27.78898    0 1123   33.02425   27.78898  15.9%     -  276s
     0     0   27.79403    0 1116   33.02425   27.79403  15.8%     -  278s
     0     0   27.79519    0 1119   33.02425   27.79519  15.8%     -  279s
     0     0   27.84034    0 1118   33.02425   27.84034  15.7%     -  284s
     0     0   27.85848    0 1127   33.02425   27.85848  15.6%     -  287s
     0     0   27.85848    0 1137   33.02425   27.85848  15.6%     -  288s
     0     0   27.90101    0 1112   33.02425   27.90101  15.5%     -  294s
     0     2   27.90101    0 1112   33.02425   27.90101  15.5%     -  327s
     1     4   27.90101    1 1116   33.02425   27.90101  15.5%  1474  331s
     3     8   28.01923    2 1131   33.02425   27.90101  15.5%  5692  339s
     7    12   28.15015    3 1165   33.02425   27.97809  15.3%  9670  359s
    11    16   28.18014    3 1177   33.02425   27.97809  15.3% 14423  379s
    15    19   28.18046    4 1162   33.02425   28.15015  14.8% 13954  401s

Cutting planes:
  Gomory: 50
  Cover: 68
  Implied bound: 250
  Projected implied bound: 13
  Clique: 74
  MIR: 2462
  StrongCG: 48
  Flow cover: 3244
  Zero half: 9
  RLT: 5
  Relax-and-lift: 491
  BQP: 2
  PSD: 26

Explored 18 nodes (879524 simplex iterations) in 401.75 seconds (541.89 work units)
Thread count was 8 (of 8 available processors)

Solution count 5: 33.0243 33.0243 33.03 ... 33.0303

Solve interrupted
Best objective 3.302425008792e+01, best bound 2.815015216931e+01, gap 14.7591%
